D0       40        50          0
S1        62        69          0
S2        20        55          0   
C1        14        66        10 
C2        58        70        20  
C3          8        45        20 
C4          8        62        10 
C5        36        40        10  
C6          5        35        10    
C7        22        66        40   
C8        16        42        20   
C9        15        80        10  
C10      65        82        10  
C11      67        85        20  
C12      35        32        10 
C13      35        69        10
C14      78        40        20 
C15      85        25        10
C16      25        30        10 
C17      30        56        20 
C18      55        85        20 
C19        8        40        40  
C20      38        15        40 
F1        73        52          0     
F2        39        31          0
F3        25        75          0
F4        15        32          0  
F5        70        75          0
F6        72        38          0
F7        10        75          0
F8        23        20          0
    
